
Welcome to IBM(R) ILOG(R) CPLEX(R) Interactive Optimizer 22.1.1.0
  with Simplex, Mixed Integer & Barrier Optimizers
5725-A06 5725-A29 5724-Y48 5724-Y49 5724-Y54 5724-Y55 5655-Y21
Copyright IBM Corp. 1988, 2022.  All Rights Reserved.

Type 'help' for a list of available commands.
Type 'help' followed by a command name for more
information on commands.

CPLEX> Selected objective sense:  MINIMIZE
Selected objective  name:  00000000
Selected RHS        name:  RHS1
Selected bound      name:  BOUND
Problem 'ee.mps' read.
Read time = 0.03 sec. (3.17 ticks)
CPLEX> New value for time limit in seconds: 7200
CPLEX> New value for parallel optimization mode: -1
CPLEX> New value for default parallel thread count: 40
CPLEX> New value for mixed integer optimality gap tolerance: 1e-13
CPLEX> Version identifier: 22.1.1.0 | 2022-11-28 | 9160aff4d
CPXPARAM_Threads                                 40
CPXPARAM_Parallel                                -1
CPXPARAM_TimeLimit                               7200
CPXPARAM_MIP_Tolerances_MIPGap                   1e-13
Found incumbent of value 0.000000 after 0.00 sec. (0.31 ticks)
Tried aggregator 2 times.
MIP Presolve eliminated 182 rows and 2745 columns.
MIP Presolve modified 6090 coefficients.
Aggregator did 713 substitutions.
Reduced MIP has 3636 rows, 7840 columns, and 28954 nonzeros.
Reduced MIP has 7840 binaries, 0 generals, 0 SOSs, and 0 indicators.
Presolve time = 0.07 sec. (69.15 ticks)
Probing time = 0.03 sec. (5.33 ticks)
Tried aggregator 1 time.
Detecting symmetries...
Reduced MIP has 3636 rows, 7840 columns, and 28954 nonzeros.
Reduced MIP has 7840 binaries, 0 generals, 0 SOSs, and 0 indicators.
Presolve time = 0.03 sec. (22.11 ticks)
Probing time = 0.02 sec. (5.12 ticks)
Clique table members: 18788.
MIP emphasis: balance optimality and feasibility.
MIP search method: dynamic search.
Parallel mode: opportunistic, using up to 40 threads.
Root relaxation solution time = 0.10 sec. (68.85 ticks)

        Nodes                                         Cuts/
   Node  Left     Objective  IInf  Best Integer    Best Bound    ItCnt     Gap

*     0+    0                            0.0000  -1.54000e+13              --- 
*     0+    0                      -3.60000e+12  -1.54000e+13           327.78%
*     0+    0                      -4.80000e+12  -1.54000e+13           220.83%
*     0+    0                      -6.00000e+12  -1.54000e+13           156.67%
      0     0  -1.53900e+13   103  -6.00000e+12  -1.53900e+13     1686  156.50%
*     0+    0                      -6.99000e+12  -1.53900e+13           120.17%
*     0+    0                      -1.41900e+13  -1.53900e+13             8.46%
      0     0  -1.53900e+13   133  -1.41900e+13      Cuts: 61     2240    8.46%
*     0+    0                      -1.53900e+13  -1.53900e+13             0.00%
      0     0  -1.53900e+13   158  -1.53900e+13      Cuts: 27     2347    0.00%
*     0+    0                      -1.53900e+13  -1.53900e+13             0.00%
*     0+    0                      -1.53900e+13  -1.53900e+13             0.00%
      0     2  -1.53900e+13   157  -1.53900e+13  -1.53900e+13     2347    0.00%
Elapsed time = 2.06 sec. (1225.66 ticks, tree = 0.02 MB, solutions = 9)
    437    64        cutoff        -1.53900e+13  -1.53900e+13    50152    0.00%
   1633    70  -1.53900e+13   151  -1.53900e+13  -1.53900e+13    52874    0.00%
   2839   260        cutoff        -1.53900e+13  -1.53900e+13   179240    0.00%
   3883   275        cutoff        -1.53900e+13  -1.53900e+13   233199    0.00%
   4818   255        cutoff        -1.53900e+13  -1.53900e+13   235148    0.00%
   5828   232  -1.53900e+13    85  -1.53900e+13  -1.53900e+13   255297    0.00%
   6897   202  -1.53900e+13    86  -1.53900e+13  -1.53900e+13   271560    0.00%
   8196   189  -1.53900e+13    38  -1.53900e+13  -1.53900e+13   280746    0.00%
   9559   180        cutoff        -1.53900e+13  -1.53900e+13   282787    0.00%
  14464   822  -1.53900e+13   120  -1.53900e+13  -1.53900e+13   504660    0.00%
Elapsed time = 8.01 sec. (4327.89 ticks, tree = 2.51 MB, solutions = 11)
  16491  1376  -1.53900e+13   133  -1.53900e+13  -1.53900e+13   637222    0.00%

Performing restart 1

Repeating presolve.
Tried aggregator 2 times.
MIP Presolve eliminated 111 rows and 579 columns.
MIP Presolve modified 1893 coefficients.
Aggregator did 93 substitutions.
Reduced MIP has 3352 rows, 7146 columns, and 25847 nonzeros.
Reduced MIP has 7146 binaries, 0 generals, 0 SOSs, and 0 indicators.
Presolve time = 0.06 sec. (58.26 ticks)
Tried aggregator 2 times.
MIP Presolve eliminated 34 rows and 126 columns.
Aggregator did 46 substitutions.
Reduced MIP has 3272 rows, 6958 columns, and 25207 nonzeros.
Reduced MIP has 6958 binaries, 0 generals, 0 SOSs, and 0 indicators.
Presolve time = 0.04 sec. (34.12 ticks)
Tried aggregator 1 time.
Reduced MIP has 3272 rows, 6958 columns, and 25207 nonzeros.
Reduced MIP has 6958 binaries, 0 generals, 0 SOSs, and 0 indicators.
Presolve time = 0.02 sec. (19.81 ticks)
Represolve time = 0.31 sec. (207.37 ticks)
  16495     0  -1.53900e+13   299  -1.53900e+13      Cuts: 43   982440    0.00%
  16495     0  -1.53900e+13   268  -1.53900e+13      Cuts: 39   982595    0.00%
  16495     0  -1.53900e+13   301  -1.53900e+13      Cuts: 54   982874    0.00%
  16495     0  -1.53900e+13   312  -1.53900e+13      Cuts: 41   983166    0.00%
  16495     0  -1.53900e+13   306  -1.53900e+13      Cuts: 17   983225    0.00%
  16495     0  -1.53900e+13   307  -1.53900e+13      Cuts: 50   983317    0.00%
  16495     0  -1.53900e+13   332  -1.53900e+13      Cuts: 14   983395    0.00%
  16495     0  -1.53900e+13   319  -1.53900e+13      Cuts: 32   983479    0.00%
  16495     0  -1.53900e+13   353  -1.53900e+13      Cuts: 30   983598    0.00%
  16495     5        cutoff        -1.53900e+13  -1.53900e+13  1002517    0.00%
  16630     6  -1.53900e+13    65  -1.53900e+13  -1.53900e+13   998065    0.00%

GUB cover cuts applied:  12
Clique cuts applied:  11
Cover cuts applied:  171
Mixed integer rounding cuts applied:  14
Zero-half cuts applied:  48
Lift and project cuts applied:  6
Gomory fractional cuts applied:  15

Root node processing (before b&c):
  Real time             =    1.24 sec. (1223.83 ticks)
Parallel b&c, 40 threads:
  Real time             =   13.24 sec. (7759.32 ticks)
  Sync time (average)   =    3.19 sec.
  Wait time (average)   =    0.11 sec.
                          ------------
Total (root+branch&cut) =   14.48 sec. (8983.15 ticks)

Solution pool: 11 solutions saved.

MIP - Integer optimal solution:  Objective = -1.5389998689e+13
Solution time =   14.59 sec.  Iterations = 1003723  Nodes = 16633
Deterministic time = 8983.18 ticks  (615.66 ticks/sec)

CPLEX> Solution 'p12' written to file 'ee.sol'.
CPLEX> 